; PUSH cw_1 DUP3 SWAP1 => DUP2 PUSH cw_1
(set-option :produce-proofs true)
; 
(set-info :status unknown)
(declare-fun storage_t ((_ BitVec 256) (_ BitVec 256) (_ BitVec 256) Int (_ BitVec 256)) (_ BitVec 256))
(declare-fun w_1 () (_ BitVec 256))
(declare-fun storage_s ((_ BitVec 256) (_ BitVec 256) (_ BitVec 256) Int (_ BitVec 256)) (_ BitVec 256))
(declare-fun exc_halt_t (Int) Bool)
(declare-fun exc_halt_s (Int) Bool)
(declare-fun stack_t ((_ BitVec 256) (_ BitVec 256) (_ BitVec 256) Int (_ BitVec 6)) (_ BitVec 256))
(declare-fun stack_s ((_ BitVec 256) (_ BitVec 256) (_ BitVec 256) Int (_ BitVec 6)) (_ BitVec 256))
(declare-fun sc_t (Int) (_ BitVec 6))
(declare-fun sc_s (Int) (_ BitVec 6))
(declare-fun used_gas_t ((_ BitVec 256) (_ BitVec 256) (_ BitVec 256) Int) Int)
(declare-fun used_gas_s ((_ BitVec 256) (_ BitVec 256) (_ BitVec 256) Int) Int)
(assert
 (exists ((x_0 (_ BitVec 256)) (x_1 (_ BitVec 256)) )(let (($x9565 (forall ((w (_ BitVec 256)) )(let ((?x2888 (storage_t x_0 x_1 w_1 2 w)))
 (let ((?x999 (storage_s x_0 x_1 w_1 3 w)))
 (= ?x999 ?x2888))))
 ))
 (let (($x11434 (exc_halt_t 2)))
 (let (($x292 (exc_halt_s 3)))
 (let (($x8051 (= $x292 $x11434)))
 (let (($x8531 (forall ((n (_ BitVec 6)) )(let ((?x1219 (stack_t x_0 x_1 w_1 2 n)))
 (let ((?x10657 (stack_s x_0 x_1 w_1 3 n)))
 (let (($x2706 (= ?x10657 ?x1219)))
 (or (bvsle (sc_t 2) n) $x2706)))))
 ))
 (let ((?x6158 (sc_t 2)))
 (let ((?x275 (sc_s 3)))
 (let (($x10569 (= ?x275 ?x6158)))
 (let ((?x9392 (used_gas_t x_0 x_1 w_1 0)))
 (let ((?x1981 (used_gas_s x_0 x_1 w_1 0)))
 (let (($x2361 (= ?x1981 ?x9392)))
 (let (($x265 (forall ((w (_ BitVec 256)) )(let ((?x11158 (storage_t x_0 x_1 w_1 0 w)))
 (let ((?x6246 (storage_s x_0 x_1 w_1 0 w)))
 (= ?x6246 ?x11158))))
 ))
 (let (($x56 (exc_halt_t 0)))
 (let (($x57 (exc_halt_s 0)))
 (let (($x58 (= $x57 $x56)))
 (let (($x8667 (forall ((n (_ BitVec 6)) )(let ((?x9359 (stack_t x_0 x_1 w_1 0 n)))
 (let ((?x10675 (stack_s x_0 x_1 w_1 0 n)))
 (let (($x7128 (= ?x10675 ?x9359)))
 (let ((?x63 (sc_t 0)))
 (let (($x4174 (bvsle ?x63 n)))
 (or $x4174 $x7128)))))))
 ))
 (let ((?x63 (sc_t 0)))
 (let ((?x72 (sc_s 0)))
 (let (($x73 (= ?x72 ?x63)))
 (let (($x10144 (not (= ((_ extract 6 6) (bvadd (_ bv1 7) (concat (_ bv0 1) (sc_t 1)))) (_ bv0 1)))))
 (let (($x8377 (exc_halt_t 1)))
 (let (($x1490 (forall ((w (_ BitVec 256)) )(let ((?x6383 (storage_t x_0 x_1 w_1 1 w)))
 (let ((?x2888 (storage_t x_0 x_1 w_1 2 w)))
 (= ?x2888 ?x6383))))
 ))
 (let (($x4903 (forall ((n (_ BitVec 6)) )(let ((?x6578 (stack_t x_0 x_1 w_1 1 n)))
 (let ((?x1219 (stack_t x_0 x_1 w_1 2 n)))
 (or (bvsle (sc_t 1) n) (= ?x1219 ?x6578)))))
 ))
 (let (($x10587 (= ?x6158 (bvadd (_ bv1 6) (sc_t 1)))))
 (let (($x9827 (= (used_gas_t x_0 x_1 w_1 2) (+ 3 (used_gas_t x_0 x_1 w_1 1)))))
 (let (($x1567 (not (= ((_ extract 6 6) (bvadd (_ bv1 7) (concat (_ bv0 1) ?x63))) (_ bv0 1)))))
 (let (($x7104 (forall ((w (_ BitVec 256)) )(let ((?x11158 (storage_t x_0 x_1 w_1 0 w)))
 (let ((?x6383 (storage_t x_0 x_1 w_1 1 w)))
 (= ?x6383 ?x11158))))
 ))
 (let (($x7726 (forall ((n (_ BitVec 6)) )(let ((?x9359 (stack_t x_0 x_1 w_1 0 n)))
 (let ((?x6578 (stack_t x_0 x_1 w_1 1 n)))
 (or (= ?x6578 ?x9359) (bvsle (bvadd (_ bv62 6) (sc_t 0)) n)))))
 ))
 (let ((?x7154 (sc_t 1)))
 (let (($x3399 (= ?x7154 (bvadd (_ bv1 6) ?x63))))
 (let (($x7575 (= (stack_t x_0 x_1 w_1 1 (bvadd (_ bv63 6) ?x63)) (stack_t x_0 x_1 w_1 0 (bvadd (_ bv63 6) ?x63)))))
 (let ((?x5177 (bvadd (_ bv62 6) ?x63)))
 (let ((?x2453 (stack_t x_0 x_1 w_1 0 ?x5177)))
 (let (($x3850 (= $x292 (or (exc_halt_s 2) (not (bvsle (_ bv0 6) (bvadd (_ bv62 6) (sc_s 2))))))))
 (let (($x3659 (forall ((w (_ BitVec 256)) )(let ((?x1341 (storage_s x_0 x_1 w_1 2 w)))
 (let ((?x999 (storage_s x_0 x_1 w_1 3 w)))
 (= ?x999 ?x1341))))
 ))
 (let (($x7761 (forall ((n (_ BitVec 6)) )(let ((?x6030 (stack_s x_0 x_1 w_1 2 n)))
 (let ((?x10657 (stack_s x_0 x_1 w_1 3 n)))
 (or (= ?x10657 ?x6030) (bvsle (bvadd (_ bv62 6) (sc_s 2)) n)))))
 ))
 (let (($x4484 (= (used_gas_s x_0 x_1 w_1 3) (+ 3 (used_gas_s x_0 x_1 w_1 2)))))
 (let ((?x218 (sc_s 2)))
 (let ((?x8683 (bvadd (_ bv63 6) ?x218)))
 (let ((?x1584 (stack_s x_0 x_1 w_1 2 ?x8683)))
 (let (($x10285 (= (stack_s x_0 x_1 w_1 3 (bvadd (_ bv63 6) ?x275)) (stack_s x_0 x_1 w_1 2 (bvadd (_ bv62 6) ?x218)))))
 (let (($x189 (exc_halt_s 1)))
 (let (($x8078 (or $x189 (not (= ((_ extract 6 6) (bvadd (_ bv1 7) (concat (_ bv0 1) (sc_s 1)))) (_ bv0 1))) (not (bvsle (_ bv0 6) (bvadd (_ bv61 6) (sc_s 1)))))))
 (let (($x247 (exc_halt_s 2)))
 (let (($x5554 (forall ((w (_ BitVec 256)) )(let ((?x10204 (storage_s x_0 x_1 w_1 1 w)))
 (let ((?x1341 (storage_s x_0 x_1 w_1 2 w)))
 (= ?x1341 ?x10204))))
 ))
 (let (($x6498 (forall ((n (_ BitVec 6)) )(let ((?x10418 (stack_s x_0 x_1 w_1 1 n)))
 (let ((?x6030 (stack_s x_0 x_1 w_1 2 n)))
 (or (bvsle (bvadd (_ bv61 6) (sc_s 1)) n) (= ?x6030 ?x10418)))))
 ))
 (let ((?x9159 (used_gas_s x_0 x_1 w_1 2)))
 (let (($x9072 (= (stack_s x_0 x_1 w_1 2 (bvadd (_ bv63 6) (sc_s 1))) (stack_s x_0 x_1 w_1 1 (bvadd (_ bv63 6) (sc_s 1))))))
 (let (($x833 (= (stack_s x_0 x_1 w_1 2 (bvadd (_ bv62 6) (sc_s 1))) (stack_s x_0 x_1 w_1 1 (bvadd (_ bv62 6) (sc_s 1))))))
 (let ((?x154 (sc_s 1)))
 (let ((?x7964 (bvadd (_ bv61 6) ?x154)))
 (let ((?x2777 (stack_s x_0 x_1 w_1 1 ?x7964)))
 (let (($x10431 (= $x189 (or $x57 (not (= ((_ extract 6 6) (bvadd (_ bv1 7) (concat (_ bv0 1) ?x72))) (_ bv0 1)))))))
 (let (($x9589 (forall ((w (_ BitVec 256)) )(let ((?x6246 (storage_s x_0 x_1 w_1 0 w)))
 (let ((?x10204 (storage_s x_0 x_1 w_1 1 w)))
 (= ?x10204 ?x6246))))
 ))
 (let (($x7412 (forall ((n (_ BitVec 6)) )(let ((?x10675 (stack_s x_0 x_1 w_1 0 n)))
 (let ((?x10418 (stack_s x_0 x_1 w_1 1 n)))
 (or (bvsle (sc_s 0) n) (= ?x10418 ?x10675)))))
 ))
 (let (($x6741 (= ?x154 (bvadd (_ bv1 6) ?x72))))
 (let (($x10875 (forall ((w (_ BitVec 256)) )(let ((?x6246 (storage_s x_0 x_1 w_1 0 w)))
 (= ?x6246 (_ bv0 256))))
 ))
 (let (($x1054 (= ?x1981 0)))
 (let (($x3561 (not $x57)))
 (let (($x6827 (= (stack_s x_0 x_1 w_1 0 (_ bv1 6)) x_1)))
 (let (($x3574 (= (stack_s x_0 x_1 w_1 0 (_ bv0 6)) x_0)))
 (let (($x11128 (= ?x72 (_ bv2 6))))
 (and $x11128 $x3574 $x6827 $x3561 $x1054 $x10875 (= (stack_s x_0 x_1 w_1 1 ?x72) w_1) (= (used_gas_s x_0 x_1 w_1 1) (+ 3 ?x1981)) $x6741 $x7412 $x9589 $x10431 (= ?x1584 ?x2777) (= (stack_s x_0 x_1 w_1 2 ?x7964) ?x2777) $x833 $x9072 (= ?x9159 (+ 3 (used_gas_s x_0 x_1 w_1 1))) (= ?x218 (bvadd (_ bv1 6) ?x154)) $x6498 $x5554 (= $x247 $x8078) $x10285 (= (stack_s x_0 x_1 w_1 3 (bvadd (_ bv62 6) ?x275)) ?x1584) $x4484 (= ?x275 ?x218) $x7761 $x3659 $x3850 (= (stack_t x_0 x_1 w_1 1 (bvadd (_ bv63 6) ?x7154)) ?x2453) (= (stack_t x_0 x_1 w_1 1 ?x5177) ?x2453) $x7575 (= (used_gas_t x_0 x_1 w_1 1) (+ 3 ?x9392)) $x3399 $x7726 $x7104 (= $x8377 (or $x56 $x1567 (not (bvsle (_ bv0 6) ?x5177)))) (= (stack_t x_0 x_1 w_1 2 ?x7154) w_1) $x9827 $x10587 $x4903 $x1490 (= $x11434 (or $x8377 $x10144)) $x73 $x8667 $x58 $x265 $x2361 (not (and $x10569 $x8531 $x8051 $x9565))))))))))))))))))))))))))))))))))))))))))))))))))))))))))))))))))
 )
(check-sat)
(get-proof)
